p cnf 1584
-21 -497
-22 -500
-23 -503
-24 -506
-25 -509
-26 -512
-27 -515
-28 -518
-29 -521
-30 -524
-31 -527
-32 -530
-33 -533
-34 -536
-35 -539
-36 -542
-37 -545
-38 -548
-39 -551
-40 -554
-41 555
-42 556
-43 557
-44 558
-45 559
-46 560
-47 561
-48 562
-49 563
-50 564
-51 565
-52 566
-53 567
-54 568
-55 569
-56 -22
-56 -23
22 23 56
-57 -24
-57 -25
24 25 57
-58 -26
-58 -27
26 27 58
-59 -28
-59 -29
28 29 59
-60 -30
-60 -31
30 31 60
-61 -32
-61 -33
32 33 61
-62 -34
-62 -35
34 35 62
-63 -36
-63 -37
36 37 63
-64 -38
-64 -39
38 39 64
-65 -40
-65 -41
40 41 65
-66 -42
-66 -43
42 43 66
-67 -44
-67 -45
44 45 67
-68 -46
-68 -47
46 47 68
-69 -48
-69 -49
48 49 69
-70 -50
-70 -51
50 51 70
-71 -52
-71 -53
52 53 71
-72 -54
-72 -55
54 55 72
-73 56
-73 57
-56 -57 73
-74 58
-74 59
-58 -59 74
-75 60
-75 61
-60 -61 75
-76 62
-76 63
-62 -63 76
-77 64
-77 65
-64 -65 77
-78 66
-78 67
-66 -67 78
-79 68
-79 69
-68 -69 79
-80 70
-80 71
-70 -71 80
-81 73
-81 74
-73 -74 81
-82 75
-82 76
-75 -76 82
-83 77
-83 78
-77 -78 83
-84 79
-84 80
-79 -80 84
-85 81
-85 82
-81 -82 85
-86 83
-86 84
-83 -84 86
-87 85
-87 86
-85 -86 87
-88 72
-88 87
-72 -87 88
-89 -21
-89 22
21 -22 89
-90 21
-90 -22
-21 22 90
-91 -89
-91 -90
89 90 91
-92 21
-92 22
-21 -22 92
-93 -21
-93 -91
21 91 93
-94 21
-94 91
-21 -91 94
-95 -93
-95 -94
93 94 95
-96 21
-96 -91
-21 91 96
-97 -92
-97 -96
92 96 97
-98 -22
-98 23
22 -23 98
-99 22
-99 -23
-22 23 99
-100 -98
-100 -99
98 99 100
-101 22
-101 23
-22 -23 101
-102 97
-102 -100
-97 100 102
-103 -97
-103 100
97 -100 103
-104 -102
-104 -103
102 103 104
-105 -97
-105 -100
97 100 105
-106 -101
-106 -105
101 105 106
-107 -23
-107 24
23 -24 107
-108 23
-108 -24
-23 24 108
-109 -107
-109 -108
107 108 109
-110 23
-110 24
-23 -24 110
-111 106
-111 -109
-106 109 111
-112 -106
-112 109
106 -109 112
-113 -111
-113 -112
111 112 113
-114 -106
-114 -109
106 109 114
-115 -110
-115 -114
110 114 115
-116 -24
-116 25
24 -25 116
-117 24
-117 -25
-24 25 117
-118 -116
-118 -117
116 117 118
-119 24
-119 25
-24 -25 119
-120 115
-120 -118
-115 118 120
-121 -115
-121 118
115 -118 121
-122 -120
-122 -121
120 121 122
-123 -115
-123 -118
115 118 123
-124 -119
-124 -123
119 123 124
-125 -25
-125 26
25 -26 125
-126 25
-126 -26
-25 26 126
-127 -125
-127 -126
125 126 127
-128 25
-128 26
-25 -26 128
-129 124
-129 -127
-124 127 129
-130 -124
-130 127
124 -127 130
-131 -129
-131 -130
129 130 131
-132 -124
-132 -127
124 127 132
-133 -128
-133 -132
128 132 133
-134 -26
-134 27
26 -27 134
-135 26
-135 -27
-26 27 135
-136 -134
-136 -135
134 135 136
-137 26
-137 27
-26 -27 137
-138 133
-138 -136
-133 136 138
-139 -133
-139 136
133 -136 139
-140 -138
-140 -139
138 139 140
-141 -133
-141 -136
133 136 141
-142 -137
-142 -141
137 141 142
-143 -27
-143 28
27 -28 143
-144 27
-144 -28
-27 28 144
-145 -143
-145 -144
143 144 145
-146 27
-146 28
-27 -28 146
-147 142
-147 -145
-142 145 147
-148 -142
-148 145
142 -145 148
-149 -147
-149 -148
147 148 149
-150 -142
-150 -145
142 145 150
-151 -146
-151 -150
146 150 151
-152 -28
-152 29
28 -29 152
-153 28
-153 -29
-28 29 153
-154 -152
-154 -153
152 153 154
-155 28
-155 29
-28 -29 155
-156 151
-156 -154
-151 154 156
-157 -151
-157 154
151 -154 157
-158 -156
-158 -157
156 157 158
-159 -151
-159 -154
151 154 159
-160 -155
-160 -159
155 159 160
-161 -29
-161 30
29 -30 161
-162 29
-162 -30
-29 30 162
-163 -161
-163 -162
161 162 163
-164 29
-164 30
-29 -30 164
-165 160
-165 -163
-160 163 165
-166 -160
-166 163
160 -163 166
-167 -165
-167 -166
165 166 167
-168 -160
-168 -163
160 163 168
-169 -164
-169 -168
164 168 169
-170 -30
-170 31
30 -31 170
-171 30
-171 -31
-30 31 171
-172 -170
-172 -171
170 171 172
-173 30
-173 31
-30 -31 173
-174 169
-174 -172
-169 172 174
-175 -169
-175 172
169 -172 175
-176 -174
-176 -175
174 175 176
-177 -169
-177 -172
169 172 177
-178 -173
-178 -177
173 177 178
-179 -31
-179 32
31 -32 179
-180 31
-180 -32
-31 32 180
-181 -179
-181 -180
179 180 181
-182 31
-182 32
-31 -32 182
-183 178
-183 -181
-178 181 183
-184 -178
-184 181
178 -181 184
-185 -183
-185 -184
183 184 185
-186 -178
-186 -181
178 181 186
-187 -182
-187 -186
182 186 187
-188 -32
-188 33
32 -33 188
-189 32
-189 -33
-32 33 189
-190 -188
-190 -189
188 189 190
-191 32
-191 33
-32 -33 191
-192 187
-192 -190
-187 190 192
-193 -187
-193 190
187 -190 193
-194 -192
-194 -193
192 193 194
-195 -187
-195 -190
187 190 195
-196 -191
-196 -195
191 195 196
-197 -33
-197 34
33 -34 197
-198 33
-198 -34
-33 34 198
-199 -197
-199 -198
197 198 199
-200 33
-200 34
-33 -34 200
-201 196
-201 -199
-196 199 201
-202 -196
-202 199
196 -199 202
-203 -201
-203 -202
201 202 203
-204 -196
-204 -199
196 199 204
-205 -200
-205 -204
200 204 205
-206 -34
-206 35
34 -35 206
-207 34
-207 -35
-34 35 207
-208 -206
-208 -207
206 207 208
-209 34
-209 35
-34 -35 209
-210 205
-210 -208
-205 208 210
-211 -205
-211 208
205 -208 211
-212 -210
-212 -211
210 211 212
-213 -205
-213 -208
205 208 213
-214 -209
-214 -213
209 213 214
-215 -35
-215 36
35 -36 215
-216 35
-216 -36
-35 36 216
-217 -215
-217 -216
215 216 217
-218 35
-218 36
-35 -36 218
-219 214
-219 -217
-214 217 219
-220 -214
-220 217
214 -217 220
-221 -219
-221 -220
219 220 221
-222 -214
-222 -217
214 217 222
-223 -218
-223 -222
218 222 223
-224 -36
-224 37
36 -37 224
-225 36
-225 -37
-36 37 225
-226 -224
-226 -225
224 225 226
-227 36
-227 37
-36 -37 227
-228 223
-228 -226
-223 226 228
-229 -223
-229 226
223 -226 229
-230 -228
-230 -229
228 229 230
-231 -223
-231 -226
223 226 231
-232 -227
-232 -231
227 231 232
-233 -37
-233 38
37 -38 233
-234 37
-234 -38
-37 38 234
-235 -233
-235 -234
233 234 235
-236 37
-236 38
-37 -38 236
-237 232
-237 -235
-232 235 237
-238 -232
-238 235
232 -235 238
-239 -237
-239 -238
237 238 239
-240 -232
-240 -235
232 235 240
-241 -236
-241 -240
236 240 241
-242 -38
-242 39
38 -39 242
-243 38
-243 -39
-38 39 243
-244 -242
-244 -243
242 243 244
-245 38
-245 39
-38 -39 245
-246 241
-246 -244
-241 244 246
-247 -241
-247 244
241 -244 247
-248 -246
-248 -247
246 247 248
-249 -241
-249 -244
241 244 249
-250 -245
-250 -249
245 249 250
-251 -39
-251 40
39 -40 251
-252 39
-252 -40
-39 40 252
-253 -251
-253 -252
251 252 253
-254 39
-254 40
-39 -40 254
-255 250
-255 -253
-250 253 255
-256 -250
-256 253
250 -253 256
-257 -255
-257 -256
255 256 257
-258 -250
-258 -253
250 253 258
-259 -254
-259 -258
254 258 259
-260 -40
-260 41
40 -41 260
-261 40
-261 -41
-40 41 261
-262 -260
-262 -261
260 261 262
-263 40
-263 41
-40 -41 263
-264 259
-264 -262
-259 262 264
-265 -259
-265 262
259 -262 265
-266 -264
-266 -265
264 265 266
-267 -259
-267 -262
259 262 267
-268 -263
-268 -267
263 267 268
-269 -41
-269 42
41 -42 269
-270 41
-270 -42
-41 42 270
-271 -269
-271 -270
269 270 271
-272 41
-272 42
-41 -42 272
-273 268
-273 -271
-268 271 273
-274 -268
-274 271
268 -271 274
-275 -273
-275 -274
273 274 275
-276 -268
-276 -271
268 271 276
-277 -272
-277 -276
272 276 277
-278 -42
-278 43
42 -43 278
-279 42
-279 -43
-42 43 279
-280 -278
-280 -279
278 279 280
-281 42
-281 43
-42 -43 281
-282 277
-282 -280
-277 280 282
-283 -277
-283 280
277 -280 283
-284 -282
-284 -283
282 283 284
-285 -277
-285 -280
277 280 285
-286 -281
-286 -285
281 285 286
-287 -43
-287 44
43 -44 287
-288 43
-288 -44
-43 44 288
-289 -287
-289 -288
287 288 289
-290 43
-290 44
-43 -44 290
-291 286
-291 -289
-286 289 291
-292 -286
-292 289
286 -289 292
-293 -291
-293 -292
291 292 293
-294 -286
-294 -289
286 289 294
-295 -290
-295 -294
290 294 295
-296 -44
-296 45
44 -45 296
-297 44
-297 -45
-44 45 297
-298 -296
-298 -297
296 297 298
-299 44
-299 45
-44 -45 299
-300 295
-300 -298
-295 298 300
-301 -295
-301 298
295 -298 301
-302 -300
-302 -301
300 301 302
-303 -295
-303 -298
295 298 303
-304 -299
-304 -303
299 303 304
-305 -45
-305 46
45 -46 305
-306 45
-306 -46
-45 46 306
-307 -305
-307 -306
305 306 307
-308 45
-308 46
-45 -46 308
-309 304
-309 -307
-304 307 309
-310 -304
-310 307
304 -307 310
-311 -309
-311 -310
309 310 311
-312 -304
-312 -307
304 307 312
-313 -308
-313 -312
308 312 313
-314 -46
-314 47
46 -47 314
-315 46
-315 -47
-46 47 315
-316 -314
-316 -315
314 315 316
-317 46
-317 47
-46 -47 317
-318 313
-318 -316
-313 316 318
-319 -313
-319 316
313 -316 319
-320 -318
-320 -319
318 319 320
-321 -313
-321 -316
313 316 321
-322 -317
-322 -321
317 321 322
-323 -47
-323 48
47 -48 323
-324 47
-324 -48
-47 48 324
-325 -323
-325 -324
323 324 325
-326 47
-326 48
-47 -48 326
-327 322
-327 -325
-322 325 327
-328 -322
-328 325
322 -325 328
-329 -327
-329 -328
327 328 329
-330 -322
-330 -325
322 325 330
-331 -326
-331 -330
326 330 331
-332 -48
-332 49
48 -49 332
-333 48
-333 -49
-48 49 333
-334 -332
-334 -333
332 333 334
-335 48
-335 49
-48 -49 335
-336 331
-336 -334
-331 334 336
-337 -331
-337 334
331 -334 337
-338 -336
-338 -337
336 337 338
-339 -331
-339 -334
331 334 339
-340 -335
-340 -339
335 339 340
-341 -49
-341 50
49 -50 341
-342 49
-342 -50
-49 50 342
-343 -341
-343 -342
341 342 343
-344 49
-344 50
-49 -50 344
-345 340
-345 -343
-340 343 345
-346 -340
-346 343
340 -343 346
-347 -345
-347 -346
345 346 347
-348 -340
-348 -343
340 343 348
-349 -344
-349 -348
344 348 349
-350 -50
-350 51
50 -51 350
-351 50
-351 -51
-50 51 351
-352 -350
-352 -351
350 351 352
-353 50
-353 51
-50 -51 353
-354 349
-354 -352
-349 352 354
-355 -349
-355 352
349 -352 355
-356 -354
-356 -355
354 355 356
-357 -349
-357 -352
349 352 357
-358 -353
-358 -357
353 357 358
-359 -51
-359 52
51 -52 359
-360 51
-360 -52
-51 52 360
-361 -359
-361 -360
359 360 361
-362 51
-362 52
-51 -52 362
-363 358
-363 -361
-358 361 363
-364 -358
-364 361
358 -361 364
-365 -363
-365 -364
363 364 365
-366 -358
-366 -361
358 361 366
-367 -362
-367 -366
362 366 367
-368 -52
-368 53
52 -53 368
-369 52
-369 -53
-52 53 369
-370 -368
-370 -369
368 369 370
-371 52
-371 53
-52 -53 371
-372 367
-372 -370
-367 370 372
-373 -367
-373 370
367 -370 373
-374 -372
-374 -373
372 373 374
-375 -367
-375 -370
367 370 375
-376 -371
-376 -375
371 375 376
-377 -53
-377 54
53 -54 377
-378 53
-378 -54
-53 54 378
-379 -377
-379 -378
377 378 379
-380 53
-380 54
-53 -54 380
-381 376
-381 -379
-376 379 381
-382 -376
-382 379
376 -379 382
-383 -381
-383 -382
381 382 383
-384 -376
-384 -379
376 379 384
-385 -380
-385 -384
380 384 385
-386 -54
-386 55
54 -55 386
-387 54
-387 -55
-54 55 387
-388 -386
-388 -387
386 387 388
-389 54
-389 55
-54 -55 389
-390 385
-390 -388
-385 388 390
-391 -385
-391 388
385 -388 391
-392 -390
-392 -391
390 391 392
-393 -385
-393 -388
385 388 393
-394 -389
-394 -393
389 393 394
-395 21
-395 -95
-21 95 395
-396 -21
-396 23
21 -23 396
-397 -395
-397 -396
395 396 397
-398 21
-398 -104
-21 104 398
-399 -21
-399 24
21 -24 399
-400 -398
-400 -399
398 399 400
-401 21
-401 -113
-21 113 401
-402 -21
-402 25
21 -25 402
-403 -401
-403 -402
401 402 403
-404 21
-404 -122
-21 122 404
-405 -21
-405 26
21 -26 405
-406 -404
-406 -405
404 405 406
-407 21
-407 -131
-21 131 407
-408 -21
-408 27
21 -27 408
-409 -407
-409 -408
407 408 409
-410 21
-410 -140
-21 140 410
-411 -21
-411 28
21 -28 411
-412 -410
-412 -411
410 411 412
-413 21
-413 -149
-21 149 413
-414 -21
-414 29
21 -29 414
-415 -413
-415 -414
413 414 415
-416 21
-416 -158
-21 158 416
-417 -21
-417 30
21 -30 417
-418 -416
-418 -417
416 417 418
-419 21
-419 -167
-21 167 419
-420 -21
-420 31
21 -31 420
-421 -419
-421 -420
419 420 421
-422 21
-422 -176
-21 176 422
-423 -21
-423 32
21 -32 423
-424 -422
-424 -423
422 423 424
-425 21
-425 -185
-21 185 425
-426 -21
-426 33
21 -33 426
-427 -425
-427 -426
425 426 427
-428 21
-428 -194
-21 194 428
-429 -21
-429 34
21 -34 429
-430 -428
-430 -429
428 429 430
-431 21
-431 -203
-21 203 431
-432 -21
-432 35
21 -35 432
-433 -431
-433 -432
431 432 433
-434 21
-434 -212
-21 212 434
-435 -21
-435 36
21 -36 435
-436 -434
-436 -435
434 435 436
-437 21
-437 -221
-21 221 437
-438 -21
-438 37
21 -37 438
-439 -437
-439 -438
437 438 439
-440 21
-440 -230
-21 230 440
-441 -21
-441 38
21 -38 441
-442 -440
-442 -441
440 441 442
-443 21
-443 -239
-21 239 443
-444 -21
-444 39
21 -39 444
-445 -443
-445 -444
443 444 445
-446 21
-446 -248
-21 248 446
-447 -21
-447 40
21 -40 447
-448 -446
-448 -447
446 447 448
-449 21
-449 -257
-21 257 449
-450 -21
-450 41
21 -41 450
-451 -449
-451 -450
449 450 451
-452 21
-452 -266
-21 266 452
-453 -21
-453 42
21 -42 453
-454 -452
-454 -453
452 453 454
-455 21
-455 -275
-21 275 455
-456 -21
-456 43
21 -43 456
-457 -455
-457 -456
455 456 457
-458 21
-458 -284
-21 284 458
-459 -21
-459 44
21 -44 459
-460 -458
-460 -459
458 459 460
-461 21
-461 -293
-21 293 461
-462 -21
-462 45
21 -45 462
-463 -461
-463 -462
461 462 463
-464 21
-464 -302
-21 302 464
-465 -21
-465 46
21 -46 465
-466 -464
-466 -465
464 465 466
-467 21
-467 -311
-21 311 467
-468 -21
-468 47
21 -47 468
-469 -467
-469 -468
467 468 469
-470 21
-470 -320
-21 320 470
-471 -21
-471 48
21 -48 471
-472 -470
-472 -471
470 471 472
-473 21
-473 -329
-21 329 473
-474 -21
-474 49
21 -49 474
-475 -473
-475 -474
473 474 475
-476 21
-476 -338
-21 338 476
-477 -21
-477 50
21 -50 477
-478 -476
-478 -477
476 477 478
-479 21
-479 -347
-21 347 479
-480 -21
-480 51
21 -51 480
-481 -479
-481 -480
479 480 481
-482 21
-482 -356
-21 356 482
-483 -21
-483 52
21 -52 483
-484 -482
-484 -483
482 483 484
-485 21
-485 -365
-21 365 485
-486 -21
-486 53
21 -53 486
-487 -485
-487 -486
485 486 487
-488 21
-488 -374
-21 374 488
-489 -21
-489 54
21 -54 489
-490 -488
-490 -489
488 489 490
-491 21
-491 -383
-21 383 491
-492 -21
-492 55
21 -55 492
-493 -491
-493 -492
491 492 493
-494 21
-494 -392
-21 392 494
-495 1
-495 88
-1 -88 495
-496 -88
-496 89
88 -89 496
-497 -495
-497 -496
495 496 497
-498 2
-498 88
-2 -88 498
-499 -88
-499 -397
88 397 499
-500 -498
-500 -499
498 499 500
-501 3
-501 88
-3 -88 501
-502 -88
-502 -400
88 400 502
-503 -501
-503 -502
501 502 503
-504 4
-504 88
-4 -88 504
-505 -88
-505 -403
88 403 505
-506 -504
-506 -505
504 505 506
-507 5
-507 88
-5 -88 507
-508 -88
-508 -406
88 406 508
-509 -507
-509 -508
507 508 509
-510 6
-510 88
-6 -88 510
-511 -88
-511 -409
88 409 511
-512 -510
-512 -511
510 511 512
-513 7
-513 88
-7 -88 513
-514 -88
-514 -412
88 412 514
-515 -513
-515 -514
513 514 515
-516 8
-516 88
-8 -88 516
-517 -88
-517 -415
88 415 517
-518 -516
-518 -517
516 517 518
-519 9
-519 88
-9 -88 519
-520 -88
-520 -418
88 418 520
-521 -519
-521 -520
519 520 521
-522 10
-522 88
-10 -88 522
-523 -88
-523 -421
88 421 523
-524 -522
-524 -523
522 523 524
-525 11
-525 88
-11 -88 525
-526 -88
-526 -424
88 424 526
-527 -525
-527 -526
525 526 527
-528 12
-528 88
-12 -88 528
-529 -88
-529 -427
88 427 529
-530 -528
-530 -529
528 529 530
-531 13
-531 88
-13 -88 531
-532 -88
-532 -430
88 430 532
-533 -531
-533 -532
531 532 533
-534 14
-534 88
-14 -88 534
-535 -88
-535 -433
88 433 535
-536 -534
-536 -535
534 535 536
-537 15
-537 88
-15 -88 537
-538 -88
-538 -436
88 436 538
-539 -537
-539 -538
537 538 539
-540 16
-540 88
-16 -88 540
-541 -88
-541 -439
88 439 541
-542 -540
-542 -541
540 541 542
-543 17
-543 88
-17 -88 543
-544 -88
-544 -442
88 442 544
-545 -543
-545 -544
543 544 545
-546 18
-546 88
-18 -88 546
-547 -88
-547 -445
88 445 547
-548 -546
-548 -547
546 547 548
-549 19
-549 88
-19 -88 549
-550 -88
-550 -448
88 448 550
-551 -549
-551 -550
549 550 551
-552 20
-552 88
-20 -88 552
-553 -88
-553 -451
88 451 553
-554 -552
-554 -553
552 553 554
-555 -88
-555 -454
88 454 555
-556 -88
-556 -457
88 457 556
-557 -88
-557 -460
88 460 557
-558 -88
-558 -463
88 463 558
-559 -88
-559 -466
88 466 559
-560 -88
-560 -469
88 469 560
-561 -88
-561 -472
88 472 561
-562 -88
-562 -475
88 475 562
-563 -88
-563 -478
88 478 563
-564 -88
-564 -481
88 481 564
-565 -88
-565 -484
88 484 565
-566 -88
-566 -487
88 487 566
-567 -88
-567 -490
88 490 567
-568 -88
-568 -493
88 493 568
-569 -88
-569 494
88 -494 569
-570 -55
-570 394
55 -394 570
-571 21
-571 -570
-21 570 571
571
